Problem:    
Rows:       105
Columns:    45 (34 integer, 34 binary)
Non-zeros:  302
Status:     INTEGER OPTIMAL
Objective:  value = 18.803528 (MINimum)

   No.   Row name        Activity     Lower bound   Upper bound
------ ------------    ------------- ------------- -------------
     1 r.5                    2018.8             0               
     2 r.6                   -1989.2      -1998.02               
     3 r.7                   18.8035             0               
     4 r.8                  -1979.98      -1998.78               
     5 r.9                    2018.8             0               
     6 r.10                  -1981.2      -1997.22               
     7 r.11                  18.8035             0               
     8 r.12                 -1977.55      -1997.58               
     9 r.13                   2018.8             0               
    10 r.14                 -1983.98      -1994.78               
    11 r.15                  18.8035             0               
    12 r.16                  16.3397      -1996.07               
    13 r.17                  18.8035             0               
    14 r.18                  8.82433      -1997.06               
    15 r.19                   2018.8             0               
    16 r.20                  -1981.2      -1997.54               
    17 r.21                   2018.8             0               
    18 r.22                 -1999.73      -1999.73               
    19 r.23                  18.8035             0               
    20 r.24                    0.274      -1998.77               
    21 r.25                        1             1             = 
    22 r.26                        1             1             = 
    23 r.27                        1             1             = 
    24 r.28                        1             1             = 
    25 r.29                        1             1             = 
    26 r.30                   7.9992        2.7795               
    27 r.31                  -7.9992      -1998.02               
    28 r.32                   2.4237        2.4237               
    29 r.33                  -2.4237      -1998.78               
    30 r.34                   5.2197        5.2197               
    31 r.35                  -5.2197      -1998.02               
    32 r.36                  1996.32        3.9298               
    33 r.37                 -1996.32      -1998.78               
    34 r.38                  1998.02        2.9375               
    35 r.39                 -1998.02      -1998.02               
    36 r.40                  1998.78        2.4638               
    37 r.41                 -1998.78      -1998.78               
    38 r.42                 -1989.47      -1989.99               
    39 r.43                 -1980.25      -1982.72               
    40 r.44                 -1989.47      -1989.99               
    41 r.45                 -1980.25      -1982.72               
    42 r.46                     1992          1.98               
    43 r.47                    -1992      -1997.22               
    44 r.48                  1997.58        1.2181               
    45 r.49                 -1997.58      -1997.58               
    46 r.50                  1997.22        5.2197               
    47 r.51                 -1997.22      -1997.22               
    48 r.52                  1993.89        3.9298               
    49 r.53                 -1993.89      -1997.58               
    50 r.54                  1990.02        2.9375               
    51 r.55                 -1990.02      -1997.22               
    52 r.56                  1996.36        2.4638               
    53 r.57                 -1996.36      -1997.58               
    54 r.58                 -1981.47      -1989.19               
    55 r.59                 -1977.83      -1981.51               
    56 r.60                 -1981.47      -1989.19               
    57 r.61                 -1977.83      -1981.51               
    58 r.62                  1994.78          1.98               
    59 r.63                 -1994.78      -1994.78               
    60 r.64                   3.6819        1.2181               
    61 r.65                  -3.6819      -1996.07               
    62 r.66                   2.7795        2.7795               
    63 r.67                  -2.7795      -1994.78               
    64 r.68                   6.1056        2.4237               
    65 r.69                  -6.1056      -1996.07               
    66 r.70                   1992.8        2.9375               
    67 r.71                  -1992.8      -1994.78               
    68 r.72                   2.4638        2.4638               
    69 r.73                  -2.4638      -1996.07               
    70 r.74                 -1984.25      -1986.75               
    71 r.75                  16.0657         -1980               
    72 r.76                 -1984.25      -1986.75               
    73 r.77                  16.0657         -1980               
    74 r.78                     1.98          1.98               
    75 r.79                    -1.98      -1997.06               
    76 r.80                   1.2181        1.2181               
    77 r.81                  -1.2181      -1997.54               
    78 r.82                   9.9792        2.7795               
    79 r.83                  -9.9792      -1997.06               
    80 r.84                   3.6418        2.4237               
    81 r.85                  -3.6418      -1997.54               
    82 r.86                   7.1997        5.2197               
    83 r.87                  -7.1997      -1997.06               
    84 r.88                  1997.54        3.9298               
    85 r.89                 -1997.54      -1997.54               
    86 r.90                  8.55033      -1989.03               
    87 r.91                 -1981.47      -1981.47               
    88 r.92                  8.55033      -1989.03               
    89 r.93                 -1981.47      -1981.47               
    90 r.94                 -1989.47      -1989.99               
    91 r.95                 -1980.25      -1982.72               
    92 r.96                 -1989.47      -1989.99               
    93 r.97                 -1980.25      -1982.72               
    94 r.98                 -1981.47      -1989.19               
    95 r.99                 -1977.83      -1981.51               
    96 r.100                -1981.47      -1989.19               
    97 r.101                -1977.83      -1981.51               
    98 r.102                -1984.25      -1986.75               
    99 r.103                 16.0657         -1980               
   100 r.104                -1984.25      -1986.75               
   101 r.105                 16.0657         -1980               
   102 r.106                 8.55033      -1989.03               
   103 r.107                -1981.47      -1981.47               
   104 r.108                 8.55033      -1989.03               
   105 r.109                -1981.47      -1981.47               

   No. Column name       Activity     Lower bound   Upper bound
------ ------------    ------------- ------------- -------------
     1 tt                    18.8035             0               
     2 s_1_1        *              1             0             1 
     3 t_1_1                  7.9992             0               
     4 s_2_1        *              0             0             1 
     5 t_2_1                 1998.78             0               
     6 s_1_2        *              1             0             1 
     7 t_1_2                       0             0               
     8 s_2_2        *              0             0             1 
     9 t_2_2                 1996.36             0               
    10 s_1_3        *              1             0             1 
    11 t_1_3                  2.7795             0               
    12 s_2_3        *              0             0             1 
    13 t_2_3                  2.4638             0               
    14 s_1_4        *              0             0             1 
    15 t_1_4                  9.9792             0               
    16 s_2_4        *              1             0             1 
    17 t_2_4                       0             0               
    18 s_1_5        *              1             0             1 
    19 t_1_5                 18.5295             0               
    20 s_2_5        *              0             0             1 
    21 t_2_5                 18.5295             0               
    22 u_1_1_2      *              0             0             1 
    23 u_2_1_2      *              0             0             1 
    24 u_1_1_3      *              0             0             1 
    25 u_2_1_3      *              0             0             1 
    26 u_1_1_4      *              1             0             1 
    27 u_2_1_4      *              0             0             1 
    28 u_1_2_1      *              1             0             1 
    29 u_2_2_1      *              1             0             1 
    30 u_1_2_3      *              1             0             1 
    31 u_2_2_3      *              0             0             1 
    32 u_1_2_4      *              1             0             1 
    33 u_2_2_4      *              0             0             1 
    34 u_1_3_1      *              1             0             1 
    35 u_2_3_1      *              1             0             1 
    36 u_1_3_2      *              0             0             1 
    37 u_2_3_2      *              1             0             1 
    38 u_1_3_4      *              1             0             1 
    39 u_2_3_4      *              0             0             1 
    40 u_1_4_1      *              0             0             1 
    41 u_2_4_1      *              1             0             1 
    42 u_1_4_2      *              0             0             1 
    43 u_2_4_2      *              1             0             1 
    44 u_1_4_3      *              0             0             1 
    45 u_2_4_3      *              1             0             1 

Integer feasibility conditions:

KKT.PE: max.abs.err = 2.27e-13 on row 66
        max.rel.err = 5.68e-17 on row 66
        High quality

KKT.PB: max.abs.err = 7.99e-15 on row 68
        max.rel.err = 2.31e-15 on row 68
        High quality

End of output
